examples/inputs/input7.dzn
n = 20;
l = 150;
s = 100;
r = 120;
f = 55;
forbidden = [| 7, 15
	| 20, 7
	| 3, 15
	| 2, 6
	| 18, 18
	| 16, 12
	| 7, 16
	| 4, 8
	| 3, 6
	| 10, 12
	| 5, 10
	| 2, 5
	| 3, 8
	| 1, 2
	| 3, 20
	| 13, 18
	| 12, 10
	| 13, 15
	| 11, 10
	| 4, 16
	| 1, 6
	| 18, 3
	| 6, 14
	| 17, 9
	| 13, 9
	| 13, 16
	| 19, 4
	| 7, 18
	| 7, 11
	| 19, 5
	| 2, 18
	| 11, 18
	| 14, 11
	| 19, 14
	| 10, 9
	| 18, 9
	| 1, 18
	| 20, 14
	| 10, 3
	| 8, 20
	| 16, 19
	| 15, 8
	| 8, 6
	| 8, 5
	| 14, 15
	| 13, 11
	| 18, 7
	| 7, 14
	| 11, 12
	| 7, 20
	| 5, 7
	| 4, 4
	| 19, 9
	| 16, 2
	| 2, 2
	|];