examples/inputs/input7.lp
#const n = 20.
#const l = 150.
#const s = 100.
#const r = 120.
#const f = 55.
val(7, 15, xxx).
val(20, 7, xxx).
val(3, 15, xxx).
val(2, 6, xxx).
val(18, 18, xxx).
val(16, 12, xxx).
val(7, 16, xxx).
val(4, 8, xxx).
val(3, 6, xxx).
val(10, 12, xxx).
val(5, 10, xxx).
val(2, 5, xxx).
val(3, 8, xxx).
val(1, 2, xxx).
val(3, 20, xxx).
val(13, 18, xxx).
val(12, 10, xxx).
val(13, 15, xxx).
val(11, 10, xxx).
val(4, 16, xxx).
val(1, 6, xxx).
val(18, 3, xxx).
val(6, 14, xxx).
val(17, 9, xxx).
val(13, 9, xxx).
val(13, 16, xxx).
val(19, 4, xxx).
val(7, 18, xxx).
val(7, 11, xxx).
val(19, 5, xxx).
val(2, 18, xxx).
val(11, 18, xxx).
val(14, 11, xxx).
val(19, 14, xxx).
val(10, 9, xxx).
val(18, 9, xxx).
val(1, 18, xxx).
val(20, 14, xxx).
val(10, 3, xxx).
val(8, 20, xxx).
val(16, 19, xxx).
val(15, 8, xxx).
val(8, 6, xxx).
val(8, 5, xxx).
val(14, 15, xxx).
val(13, 11, xxx).
val(18, 7, xxx).
val(7, 14, xxx).
val(11, 12, xxx).
val(7, 20, xxx).
val(5, 7, xxx).
val(4, 4, xxx).
val(19, 9, xxx).
val(16, 2, xxx).
val(2, 2, xxx).